NAME : CC55.1836297.tour
COMMENT : Cost = 0_1836297
COMMENT : Found by LKH [Keld Helsgaun] Sun Apr 23 15:14:36 2017
TYPE : TOUR
DIMENSION : 114
TOUR_SECTION
1
33
88
36
91
35
90
16
71
41
32
87
96
45
100
50
105
15
70
40
95
48
103
2
39
57
54
109
21
76
10
94
65
114
7
62
49
104
14
69
5
60
3
58
56
111
4
59
6
61
27
82
22
77
29
46
84
101
34
24
89
79
19
74
113
13
68
47
102
42
97
52
8
63
107
44
99
20
75
37
92
53
55
110
31
108
86
9
64
112
28
83
18
38
93
73
51
106
11
66
23
78
30
85
43
98
12
67
17
26
72
81
25
80
-1
EOF
